(set-info :smt-lib-version 2.6)
(set-logic UFNIRA)
(set-info :source |
Encoded by: Mirek Olšák
From a collection by: Vít Musil
Source url: https://prase.cz/library/FunkcionalniRovniceVM/FunkcionalniRovniceVM.pdf
Problem number: Cvičení 12, Úloha 35
Original source: IMO-1986-5
|)
(set-info :license "https://creativecommons.org/licenses/by-nc/4.0/")
(set-info :category "academic")
(set-info :status sat)

; Header
(declare-fun f (Real) Real)

; Equations
(assert (forall ((x Real) (y Real)) (= (f (+ (* x x) (f y))) (+ y (* (f x) (f x))))))

; Find all possible f

(check-sat)
(get-model)
